232 3633
2 3 4 5 6 7 
1 3 4 5 6 7 
1 2 4 5 6 7 
1 2 3 5 
1 2 3 4 6 7 
1 2 3 5 7 
1 2 3 5 6 





14 15 
13 15 
13 14 
18 21 46 47 48 49 50 51 52 53 55 56 57 59 61 62 63 64 65 66 67 68 70 71 72 73 76 77 78 79 80 81 82 83 85 87 88 89 91 92 94 95 96 97 98 99 100 101 103 104 106 107 108 111 112 113 114 115 116 117 118 125 128 
19 27 
16 21 48 49 50 51 52 53 55 56 57 58 59 61 62 63 64 65 66 67 70 71 76 77 78 80 82 83 85 87 88 89 91 92 94 96 97 98 99 100 101 103 104 105 106 107 108 111 112 113 114 115 116 117 118 128 
17 27 
152 155 156 
16 18 48 49 50 52 53 55 57 65 71 76 78 80 83 85 87 88 89 91 92 94 99 100 101 104 107 111 112 114 115 116 118 128 
42 43 44 45 46 47 48 49 50 51 52 53 54 55 56 57 59 60 61 62 63 64 65 66 67 68 69 70 71 72 73 74 75 76 77 79 80 81 82 83 84 85 87 88 89 90 91 92 93 94 95 96 97 98 99 101 103 104 106 107 109 110 111 112 117 121 122 123 
24 25 26 28 30 31 179 221 
23 25 26 28 30 31 179 221 
23 24 26 28 30 31 179 221 
23 24 25 28 30 31 179 221 
17 19 
23 24 25 26 30 31 179 221 
32 48 49 50 52 53 55 56 57 59 61 62 63 64 65 66 67 68 70 72 73 76 78 80 82 83 85 87 88 89 91 92 94 96 97 98 99 101 103 104 107 108 111 112 117 121 122 123 126 127 
23 24 25 26 28 31 179 221 
23 24 25 26 28 30 179 221 
29 48 49 50 52 53 55 56 57 59 61 62 63 64 65 66 67 68 70 72 73 76 78 80 82 83 85 87 88 89 91 92 94 96 97 98 99 101 103 104 107 108 111 112 117 121 122 123 126 127 

35 36 
34 36 
34 35 
38 39 40 
37 39 40 
37 38 40 
37 38 39 
42 43 44 45 46 47 
22 41 43 44 45 46 47 
22 41 42 44 45 46 47 48 49 50 52 53 54 55 56 57 59 63 
22 41 42 43 45 46 47 48 49 50 51 52 53 54 55 56 57 59 60 61 62 63 64 65 66 70 71 76 78 80 82 101 
22 41 42 43 44 46 47 
16 22 41 42 43 44 45 47 48 49 50 51 52 53 54 55 56 57 58 59 60 61 62 63 64 65 66 67 68 69 70 71 72 73 74 75 76 77 78 79 80 81 82 83 84 85 86 87 88 89 90 91 92 93 94 95 96 97 98 99 100 101 102 103 104 105 106 107 108 109 110 111 112 113 117 120 125 
16 22 41 42 43 44 45 46 48 49 50 51 52 53 54 55 56 57 58 59 60 61 62 63 64 65 66 67 68 69 70 71 72 73 74 75 76 77 78 79 80 81 82 83 84 85 86 87 88 89 90 91 92 93 94 95 96 97 98 99 100 101 102 103 104 105 106 107 108 109 110 111 112 113 117 120 
16 18 21 22 29 32 43 44 46 47 49 50 51 52 53 54 55 56 57 58 59 60 61 62 63 64 65 66 67 68 69 70 71 72 73 74 75 76 77 78 79 80 81 82 83 84 85 86 87 88 89 90 91 92 93 94 95 96 97 98 99 100 101 102 103 104 105 106 107 108 109 110 111 112 113 117 120 121 122 123 125 126 127 
16 18 21 22 29 32 43 44 46 47 48 50 51 52 53 54 55 56 57 58 59 60 61 62 63 64 65 66 67 68 69 70 71 72 73 74 75 76 77 78 79 80 81 82 83 84 85 86 87 88 89 90 91 92 93 94 95 96 97 98 99 100 101 102 103 104 105 106 107 108 109 110 111 112 113 117 120 121 122 123 125 126 127 
16 18 21 22 29 32 43 44 46 47 48 49 51 52 53 54 55 56 57 58 59 60 61 62 63 64 65 66 67 68 69 70 71 72 73 74 75 76 77 78 79 80 81 82 83 84 85 86 87 88 89 90 91 92 93 94 95 96 97 98 99 100 101 102 103 104 105 106 107 108 109 110 111 112 113 114 115 116 117 118 119 120 121 122 123 124 125 126 127 
16 18 22 44 46 47 48 49 50 52 53 54 55 56 57 58 59 60 61 62 63 64 65 66 67 68 69 70 71 72 73 74 75 76 77 78 79 80 81 82 83 84 85 86 87 88 89 90 91 92 93 94 95 96 97 98 99 100 101 102 103 104 105 106 107 108 111 112 113 114 115 116 117 118 119 121 122 123 124 125 126 127 
16 18 21 22 29 32 43 44 46 47 48 49 50 51 53 54 55 56 57 58 59 60 61 62 63 64 65 66 67 68 69 70 71 72 73 74 75 76 77 78 79 80 81 82 83 84 85 86 87 88 89 90 91 92 93 94 95 96 97 98 99 100 101 102 103 104 105 106 107 108 111 112 113 114 115 116 117 118 119 120 121 122 123 124 125 126 127 
16 18 21 22 29 32 43 44 46 47 48 49 50 51 52 54 55 56 57 58 59 60 61 62 63 64 65 66 67 68 69 70 71 72 73 74 75 76 77 78 79 80 81 82 83 84 85 86 87 88 89 90 91 92 93 94 95 96 97 98 99 100 101 102 103 104 105 106 107 108 109 110 111 112 113 114 115 116 117 118 119 120 121 122 123 124 125 126 127 
22 43 44 46 47 48 49 50 51 52 53 55 56 57 59 60 61 62 63 64 65 66 68 70 71 72 73 76 78 79 80 81 82 83 85 87 88 89 91 92 94 96 97 98 99 101 103 104 107 109 110 111 112 117 121 122 
16 18 21 22 29 32 43 44 46 47 48 49 50 51 52 53 54 56 57 58 59 60 61 62 63 64 65 66 67 68 69 70 71 72 73 74 75 76 77 78 79 80 81 82 83 84 85 86 87 88 89 90 91 92 93 94 95 96 97 98 99 100 101 102 103 104 105 106 107 108 109 110 111 112 113 114 115 116 117 118 119 120 121 122 123 124 125 
16 18 22 29 32 43 44 46 47 48 49 50 51 52 53 54 55 57 58 59 60 61 62 63 64 65 66 67 68 69 70 71 72 73 74 75 76 77 78 79 80 81 82 83 84 85 86 87 88 89 90 91 92 93 94 95 96 97 98 99 100 101 102 103 104 105 106 107 108 109 110 111 112 113 117 120 121 122 123 125 126 127 
16 18 21 22 29 32 43 44 46 47 48 49 50 51 52 53 54 55 56 58 59 60 61 62 63 64 65 66 67 68 69 70 71 72 73 74 75 76 77 78 79 80 81 82 83 84 85 86 87 88 89 90 91 92 93 94 95 96 97 98 99 100 101 102 103 104 105 106 107 108 111 112 113 114 115 116 117 118 119 120 121 122 123 124 125 
18 46 47 48 49 50 51 52 53 55 56 57 59 60 61 62 63 64 65 66 67 68 69 70 71 72 73 74 75 76 77 78 79 80 81 82 83 84 85 86 87 88 89 90 91 92 93 94 95 96 97 98 99 100 101 102 103 104 105 106 107 108 111 112 113 114 115 116 117 118 
16 18 22 29 32 43 44 46 47 48 49 50 51 52 53 54 55 56 57 58 60 61 62 63 64 65 66 67 68 69 70 71 72 73 74 75 76 77 78 79 80 81 82 83 84 85 86 87 88 89 90 91 92 93 94 95 96 97 98 99 100 101 102 103 104 105 106 107 108 109 110 111 112 113 117 119 120 121 122 123 124 125 
22 44 46 47 48 49 50 51 52 53 54 55 56 57 58 59 61 62 63 64 65 66 67 68 69 70 71 72 73 74 75 76 77 78 79 80 81 82 83 84 85 86 87 88 89 90 91 92 93 94 95 96 97 98 99 100 101 102 103 104 105 106 107 108 109 111 112 117 120 121 122 123 125 
16 18 22 29 32 44 46 47 48 49 50 51 52 53 54 55 56 57 58 59 60 62 63 64 65 66 67 68 69 70 71 72 73 74 75 76 77 78 79 80 81 82 83 84 85 86 87 88 89 90 91 92 93 94 95 96 97 98 99 100 101 102 103 104 105 106 107 108 111 112 113 117 121 122 123 125 126 127 
16 18 22 29 32 44 46 47 48 49 50 51 52 53 54 55 56 57 58 59 60 61 63 64 65 66 67 68 69 70 71 72 73 74 75 76 77 78 79 80 81 82 83 84 85 86 87 88 89 90 91 92 93 94 95 96 97 98 99 100 101 102 103 104 105 106 107 108 111 112 113 117 119 120 121 122 123 124 125 
16 18 22 29 32 43 44 46 47 48 49 50 51 52 53 54 55 56 57 58 59 60 61 62 64 65 66 67 68 69 70 71 72 73 74 75 76 77 78 79 80 81 82 83 84 85 86 87 88 89 90 91 92 93 94 95 96 97 98 99 100 101 102 103 104 105 106 107 108 109 110 111 112 113 117 119 120 121 122 123 124 125 126 
16 18 22 29 32 44 46 47 48 49 50 51 52 53 54 55 56 57 58 59 60 61 62 63 65 66 67 68 69 70 71 72 73 74 75 76 77 78 79 80 81 82 83 84 85 86 87 88 89 90 91 92 93 94 95 96 97 98 99 100 101 102 103 104 105 106 107 108 109 110 111 112 113 117 119 120 121 122 123 124 125 
16 18 21 22 29 32 44 46 47 48 49 50 51 52 53 54 55 56 57 58 59 60 61 62 63 64 66 67 68 69 70 71 72 73 74 75 76 77 78 79 80 81 82 83 84 85 86 87 88 89 90 91 92 93 94 95 96 97 98 99 100 101 102 103 104 105 106 107 108 109 110 111 112 113 114 115 116 117 118 119 120 121 122 123 124 125 126 127 
16 18 22 29 32 44 46 47 48 49 50 51 52 53 54 55 56 57 58 59 60 61 62 63 64 65 67 68 69 70 71 72 73 74 75 76 77 78 79 80 81 82 83 84 85 86 87 88 89 90 91 92 93 94 95 96 97 98 99 100 101 102 103 104 105 106 107 108 109 110 111 112 113 117 119 120 121 122 123 124 125 
16 18 22 29 32 46 47 48 49 50 51 52 53 55 56 57 58 59 60 61 62 63 64 65 66 68 69 70 71 72 73 74 75 76 77 78 79 80 81 82 83 84 85 86 87 88 89 90 91 92 93 94 95 96 97 98 99 100 101 102 103 104 105 106 107 108 111 112 113 117 119 120 121 122 123 124 125 
16 22 29 32 46 47 48 49 50 51 52 53 54 55 56 57 58 59 60 61 62 63 64 65 66 67 69 70 71 72 73 74 75 76 77 78 79 80 81 82 83 84 85 86 87 88 89 90 91 92 93 94 95 96 97 98 99 100 101 102 103 104 105 106 107 108 111 112 113 117 121 122 123 129 130 131 132 
22 46 47 48 49 50 51 52 53 55 56 57 58 59 60 61 62 63 64 65 66 67 68 70 71 72 73 74 75 76 77 78 79 80 81 82 83 84 85 87 88 89 90 91 92 93 94 95 96 97 98 99 100 101 102 103 104 105 106 107 108 111 112 113 117 121 122 123 129 130 131 132 
16 18 22 29 32 44 46 47 48 49 50 51 52 53 54 55 56 57 58 59 60 61 62 63 64 65 66 67 68 69 71 72 73 74 75 76 77 78 79 80 81 82 83 84 85 86 87 88 89 90 91 92 93 94 95 96 97 98 99 100 101 102 103 104 105 106 107 108 111 112 113 117 119 120 121 122 123 124 125 126 
16 18 21 22 44 46 47 48 49 50 51 52 53 54 55 56 57 58 59 60 61 62 63 64 65 66 67 68 69 70 72 73 74 75 76 77 78 79 80 81 82 83 84 85 86 87 88 89 90 91 92 93 94 95 96 97 98 99 100 101 102 103 104 105 106 107 108 111 112 113 114 115 116 117 118 119 124 125 128 
16 22 29 32 46 47 48 49 50 51 52 53 54 55 56 57 58 59 60 61 62 63 64 65 66 67 68 69 70 71 73 74 75 76 77 78 79 80 81 82 83 84 85 86 87 88 89 90 91 92 93 94 95 96 97 98 99 100 101 102 103 104 105 106 107 108 111 112 113 117 121 122 123 129 130 131 132 133 134 
16 22 29 32 46 47 48 49 50 51 52 53 54 55 56 57 58 59 60 61 62 63 64 65 66 67 68 69 70 71 72 74 75 76 77 78 79 80 81 82 83 84 85 86 87 88 89 90 91 92 93 94 95 96 97 98 99 100 101 102 103 104 105 106 107 108 111 112 113 117 121 122 123 129 130 131 132 133 134 
22 46 47 48 49 50 51 52 53 55 56 57 58 59 60 61 62 63 64 65 66 67 68 69 70 71 72 73 75 76 77 78 79 80 81 82 83 84 85 86 87 88 89 90 91 92 93 94 95 96 97 98 99 100 101 102 103 104 105 106 107 108 111 112 113 114 115 116 117 118 
22 46 47 48 49 50 51 52 53 55 56 57 58 59 60 61 62 63 64 65 66 67 68 69 70 71 72 73 74 76 77 78 79 80 81 82 83 84 85 87 88 89 90 91 92 93 94 95 96 97 98 99 100 101 102 103 104 105 106 107 108 111 112 113 117 121 122 123 129 130 131 132 
16 18 21 22 29 32 44 46 47 48 49 50 51 52 53 54 55 56 57 58 59 60 61 62 63 64 65 66 67 68 69 70 71 72 73 74 75 77 78 79 80 81 82 83 84 85 86 87 88 89 90 91 92 93 94 95 96 97 98 99 100 101 102 103 104 105 106 107 108 109 110 111 112 113 114 115 116 117 118 119 120 121 122 123 124 125 126 127 
16 18 22 46 47 48 49 50 51 52 53 55 56 57 58 59 60 61 62 63 64 65 66 67 68 69 70 71 72 73 74 75 76 78 79 80 81 82 83 84 85 86 87 88 89 90 91 92 93 94 95 96 97 98 99 100 101 102 103 104 105 106 107 108 111 112 113 117 120 121 122 123 124 125 
16 18 21 29 32 44 46 47 48 49 50 51 52 53 54 55 56 57 58 59 60 61 62 63 64 65 66 67 68 69 70 71 72 73 74 75 76 77 79 80 81 82 83 84 85 86 87 88 89 90 91 92 93 94 95 96 97 98 99 100 101 102 103 104 105 106 107 108 109 110 111 112 113 114 115 116 117 118 119 120 121 122 123 124 125 126 127 
16 22 46 47 48 49 50 51 52 53 54 55 56 57 58 59 60 61 62 63 64 65 66 67 68 69 70 71 72 73 74 75 76 77 78 80 81 82 83 84 85 87 88 89 90 91 92 93 94 95 96 97 98 99 100 101 102 103 104 105 106 107 108 111 112 113 117 121 122 123 129 130 131 132 
16 18 21 22 29 32 44 46 47 48 49 50 51 52 53 54 55 56 57 58 59 60 61 62 63 64 65 66 67 68 69 70 71 72 73 74 75 76 77 78 79 81 82 83 84 85 86 87 88 89 90 91 92 93 94 95 96 97 98 99 100 101 102 103 104 105 106 107 108 109 110 111 112 113 114 115 116 117 118 119 120 121 122 123 124 125 126 127 
16 22 46 47 48 49 50 51 52 53 54 55 56 57 58 59 60 61 62 63 64 65 66 67 68 69 70 71 72 73 74 75 76 77 78 79 80 82 83 84 85 87 88 89 90 91 92 93 94 95 96 97 98 99 100 101 102 103 104 105 106 107 108 111 112 113 117 121 122 123 129 130 131 132 
16 18 22 29 32 44 46 47 48 49 50 51 52 53 54 55 56 57 58 59 60 61 62 63 64 65 66 67 68 69 70 71 72 73 74 75 76 77 78 79 80 81 83 84 85 86 87 88 89 90 91 92 93 94 95 96 97 98 99 100 101 102 103 104 105 106 107 108 109 110 111 112 113 114 115 116 117 118 120 121 122 123 124 125 
16 18 21 22 29 32 46 47 48 49 50 51 52 53 54 55 56 57 58 59 60 61 62 63 64 65 66 67 68 69 70 71 72 73 74 75 76 77 78 79 80 81 82 84 85 86 87 88 89 90 91 92 93 94 95 96 97 98 99 100 101 102 103 104 105 106 107 108 109 110 111 112 113 114 115 116 117 118 119 120 121 122 123 124 125 
22 46 47 48 49 50 51 52 53 55 56 57 58 59 60 61 62 63 64 65 66 67 68 69 70 71 72 73 74 75 76 77 78 79 80 81 82 83 85 86 87 88 89 90 91 92 93 94 95 96 97 98 99 100 101 102 103 104 105 106 107 108 111 112 113 114 115 116 117 118 119 124 125 
16 18 21 22 29 32 46 47 48 49 50 51 52 53 54 55 56 57 58 59 60 61 62 63 64 65 66 67 68 69 70 71 72 73 74 75 76 77 78 79 80 81 82 83 84 86 87 88 89 90 91 92 93 94 95 96 97 98 99 100 101 102 103 104 105 106 107 108 109 110 111 112 113 114 115 116 117 118 119 121 122 123 124 125 126 127 
46 47 48 49 50 51 52 53 55 56 57 58 59 60 61 62 63 64 65 66 67 68 70 71 72 73 74 76 77 78 80 82 83 84 85 87 88 89 90 91 92 94 95 96 97 98 99 100 101 102 103 104 105 106 107 108 111 112 113 114 115 116 117 118 119 124 
16 18 21 22 29 32 46 47 48 49 50 51 52 53 54 55 56 57 58 59 60 61 62 63 64 65 66 67 68 69 70 71 72 73 74 75 76 77 78 79 80 81 82 83 84 85 86 88 89 90 91 92 93 94 95 96 97 98 99 100 101 102 103 104 105 106 107 108 109 110 111 112 113 114 115 116 117 118 119 121 122 123 124 125 128 
16 18 21 22 29 32 46 47 48 49 50 51 52 53 54 55 56 57 58 59 60 61 62 63 64 65 66 67 68 69 70 71 72 73 74 75 76 77 78 79 80 81 82 83 84 85 86 87 89 90 91 92 93 94 95 96 97 98 99 100 101 102 103 104 105 106 107 108 109 110 111 112 113 114 115 116 117 118 119 121 122 123 124 125 126 127 
16 18 21 22 29 32 46 47 48 49 50 51 52 53 54 55 56 57 58 59 60 61 62 63 64 65 66 67 68 69 70 71 72 73 74 75 76 77 78 79 80 81 82 83 84 85 86 87 88 90 91 92 93 94 95 96 97 98 99 100 101 102 103 104 105 106 107 108 109 110 111 112 113 114 115 116 117 118 119 121 122 123 124 125 128 
22 46 47 48 49 50 51 52 53 55 56 57 58 59 60 61 62 63 64 65 66 67 68 69 70 71 72 73 74 75 76 77 78 79 80 81 82 83 84 85 86 87 88 89 91 92 93 94 95 96 97 98 99 100 101 102 103 104 105 106 107 108 111 112 113 114 115 116 117 118 119 124 125 
16 18 21 22 29 32 46 47 48 49 50 51 52 53 54 55 56 57 58 59 60 61 62 63 64 65 66 67 68 69 70 71 72 73 74 75 76 77 78 79 80 81 82 83 84 85 86 87 88 89 90 92 93 94 95 96 97 98 99 100 101 102 103 104 105 106 107 108 109 110 111 112 113 114 115 116 117 118 119 121 122 123 124 125 128 
16 18 21 22 29 32 46 47 48 49 50 51 52 53 54 55 56 57 58 59 60 61 62 63 64 65 66 67 68 69 70 71 72 73 74 75 76 77 78 79 80 81 82 83 84 85 86 87 88 89 90 91 93 94 95 96 97 98 99 100 101 102 103 104 105 106 107 108 111 112 113 114 115 116 117 118 119 120 121 122 123 124 125 
22 46 47 48 49 50 51 52 53 55 56 57 58 59 60 61 62 63 64 65 66 67 68 69 70 71 72 73 74 75 76 77 78 79 80 81 82 83 84 85 87 88 89 90 91 92 94 95 96 97 98 99 100 101 102 103 104 105 106 107 108 111 112 113 117 121 122 123 129 130 131 132 133 134 
16 18 21 22 29 32 46 47 48 49 50 51 52 53 54 55 56 57 58 59 60 61 62 63 64 65 66 67 68 69 70 71 72 73 74 75 76 77 78 79 80 81 82 83 84 85 86 87 88 89 90 91 92 93 95 96 97 98 99 100 101 102 103 104 105 106 107 108 109 110 111 112 113 114 115 116 117 118 119 124 125 128 
16 22 46 47 48 49 50 51 52 53 55 56 57 58 59 60 61 62 63 64 65 66 67 68 69 70 71 72 73 74 75 76 77 78 79 80 81 82 83 84 85 86 87 88 89 90 91 92 93 94 96 97 98 99 100 101 102 103 104 105 106 107 108 111 112 113 117 121 122 123 129 130 131 132 133 134 
16 18 22 29 32 46 47 48 49 50 51 52 53 54 55 56 57 58 59 60 61 62 63 64 65 66 67 68 69 70 71 72 73 74 75 76 77 78 79 80 81 82 83 84 85 86 87 88 89 90 91 92 93 94 95 97 98 99 100 101 102 103 104 105 106 107 108 109 110 111 112 113 117 120 121 122 123 125 126 127 
16 18 22 29 32 46 47 48 49 50 51 52 53 54 55 56 57 58 59 60 61 62 63 64 65 66 67 68 69 70 71 72 73 74 75 76 77 78 79 80 81 82 83 84 85 86 87 88 89 90 91 92 93 94 95 96 98 99 100 101 102 103 104 105 106 107 108 111 112 113 117 119 120 121 122 123 124 125 126 127 
16 18 22 29 32 46 47 48 49 50 51 52 53 54 55 56 57 58 59 60 61 62 63 64 65 66 67 68 69 70 71 72 73 74 75 76 77 78 79 80 81 82 83 84 85 86 87 88 89 90 91 92 93 94 95 96 97 99 100 101 102 103 104 105 106 107 108 109 110 111 112 113 114 115 116 117 118 119 120 121 122 123 124 125 126 127 
16 18 21 22 29 32 46 47 48 49 50 51 52 53 54 55 56 57 58 59 60 61 62 63 64 65 66 67 68 69 70 71 72 73 74 75 76 77 78 79 80 81 82 83 84 85 86 87 88 89 90 91 92 93 94 95 96 97 98 100 101 102 103 104 105 106 107 108 111 112 113 114 115 116 117 118 119 120 121 122 123 124 125 
16 18 21 46 47 48 49 50 51 52 53 55 56 57 58 59 60 61 62 63 64 65 66 67 68 69 70 71 72 73 74 75 76 77 78 79 80 81 82 83 84 85 86 87 88 89 90 91 92 93 94 95 96 97 98 99 101 102 103 104 105 106 107 108 111 112 113 114 115 116 117 118 119 121 122 123 124 125 
16 18 21 22 29 32 44 46 47 48 49 50 51 52 53 54 55 56 57 58 59 60 61 62 63 64 65 66 67 68 69 70 71 72 73 74 75 76 77 78 79 80 81 82 83 84 85 86 87 88 89 90 91 92 93 94 95 96 97 98 99 100 102 103 104 105 106 107 108 111 112 113 114 115 116 117 118 119 120 121 122 123 124 125 126 127 
46 47 48 49 50 51 52 53 55 56 57 58 59 60 61 62 63 64 65 66 67 68 69 70 71 72 73 74 75 76 77 78 79 80 81 82 83 84 85 86 87 88 89 90 91 92 93 94 95 96 97 98 99 100 101 103 104 105 106 107 108 111 112 113 114 115 116 117 118 119 124 
16 18 22 29 32 46 47 48 49 50 51 52 53 54 55 56 57 58 59 60 61 62 63 64 65 66 67 68 69 70 71 72 73 74 75 76 77 78 79 80 81 82 83 84 85 86 87 88 89 90 91 92 93 94 95 96 97 98 99 100 101 102 104 105 106 107 108 111 112 113 117 121 122 123 125 126 127 
16 18 21 22 29 32 46 47 48 49 50 51 52 53 54 55 56 57 58 59 60 61 62 63 64 65 66 67 68 69 70 71 72 73 74 75 76 77 78 79 80 81 82 83 84 85 86 87 88 89 90 91 92 93 94 95 96 97 98 99 100 101 102 103 105 106 107 108 109 110 111 112 113 114 115 116 117 118 119 121 122 123 124 125 126 127 
18 46 47 48 49 50 51 52 53 55 56 57 58 59 60 61 62 63 64 65 66 67 68 69 70 71 72 73 74 75 76 77 78 79 80 81 82 83 84 85 86 87 88 89 90 91 92 93 94 95 96 97 98 99 100 101 102 103 104 106 107 108 111 112 113 114 115 116 117 118 119 124 125 
16 18 22 46 47 48 49 50 51 52 53 55 56 57 58 59 60 61 62 63 64 65 66 67 68 69 70 71 72 73 74 75 76 77 78 79 80 81 82 83 84 85 86 87 88 89 90 91 92 93 94 95 96 97 98 99 100 101 102 103 104 105 107 108 111 112 113 114 115 116 117 118 119 124 
16 18 21 22 29 32 46 47 48 49 50 51 52 53 54 55 56 57 58 59 60 61 62 63 64 65 66 67 68 69 70 71 72 73 74 75 76 77 78 79 80 81 82 83 84 85 86 87 88 89 90 91 92 93 94 95 96 97 98 99 100 101 102 103 104 105 106 108 111 112 113 114 115 116 117 118 119 120 121 122 123 124 125 
16 18 29 32 46 47 48 49 50 51 52 53 55 56 57 58 59 60 61 62 63 64 65 66 67 68 69 70 71 72 73 74 75 76 77 78 79 80 81 82 83 84 85 86 87 88 89 90 91 92 93 94 95 96 97 98 99 100 101 102 103 104 105 106 107 111 112 113 114 115 116 117 118 119 121 122 124 125 
22 46 47 48 49 50 53 54 55 56 59 60 63 64 65 66 76 78 80 82 83 85 87 88 89 91 94 96 98 104 110 111 112 
22 46 47 48 49 50 53 54 55 56 59 63 64 65 66 76 78 80 82 83 85 87 88 89 91 94 96 98 104 109 111 112 
16 18 21 22 29 32 46 47 48 49 50 51 52 53 54 55 56 57 58 59 60 61 62 63 64 65 66 67 68 69 70 71 72 73 74 75 76 77 78 79 80 81 82 83 84 85 86 87 88 89 90 91 92 93 94 95 96 97 98 99 100 101 102 103 104 105 106 107 108 109 110 112 113 114 115 116 117 118 119 121 122 123 124 125 128 
16 18 21 22 29 32 46 47 48 49 50 51 52 53 54 55 56 57 58 59 60 61 62 63 64 65 66 67 68 69 70 71 72 73 74 75 76 77 78 79 80 81 82 83 84 85 86 87 88 89 90 91 92 93 94 95 96 97 98 99 100 101 102 103 104 105 106 107 108 109 110 111 113 114 115 116 117 118 119 124 125 128 
16 18 46 47 48 49 50 51 52 53 55 56 57 58 59 61 62 63 64 65 66 67 68 69 70 71 72 73 74 75 76 77 78 79 80 81 82 83 84 85 86 87 88 89 90 91 92 93 94 95 96 97 98 99 100 101 102 103 104 105 106 107 108 111 112 114 115 116 117 118 119 124 125 
16 18 21 50 51 52 53 55 57 58 65 71 74 76 78 80 82 83 84 85 86 87 88 89 90 91 92 94 98 99 100 101 102 104 105 106 107 108 111 112 113 115 116 117 118 128 
16 18 21 50 51 52 53 55 57 58 65 71 74 76 78 80 82 83 84 85 86 87 88 89 90 91 92 94 98 99 100 101 102 104 105 106 107 108 111 112 113 114 116 117 118 128 
16 18 21 50 51 52 53 55 57 58 65 71 74 76 78 80 82 83 84 85 86 87 88 89 90 91 92 94 98 99 100 101 102 104 105 106 107 108 111 112 113 114 115 117 118 128 
16 18 22 29 32 46 47 48 49 50 51 52 53 54 55 56 57 58 59 60 61 62 63 64 65 66 67 68 69 70 71 72 73 74 75 76 77 78 79 80 81 82 83 84 85 86 87 88 89 90 91 92 93 94 95 96 97 98 99 100 101 102 103 104 105 106 107 108 111 112 113 114 115 116 118 119 120 124 125 
16 18 21 50 51 52 53 55 57 58 65 71 74 76 78 80 82 83 84 85 86 87 88 89 90 91 92 94 98 99 100 101 102 104 105 106 107 108 111 112 113 114 115 116 117 128 
50 51 52 53 55 57 59 62 63 64 65 66 67 70 71 76 78 80 83 84 85 86 87 88 89 90 91 92 94 97 98 99 100 101 102 104 105 106 107 108 111 112 113 117 124 125 
46 47 48 49 50 52 53 55 56 57 59 60 62 63 64 65 66 67 70 76 77 78 80 82 83 92 96 97 98 99 101 107 117 
22 29 32 48 49 50 51 52 53 54 55 56 57 59 60 61 62 63 64 65 66 67 68 69 70 72 73 75 76 77 78 79 80 81 82 83 85 87 88 89 91 92 93 95 96 97 98 99 100 101 103 104 107 108 111 122 123 126 127 
22 29 32 48 49 50 51 52 53 54 55 56 57 59 60 61 62 63 64 65 66 67 68 69 70 72 73 75 76 77 78 79 80 81 82 83 85 87 88 89 91 92 93 95 96 97 98 99 100 101 103 104 107 108 111 121 123 126 127 
22 29 32 48 49 50 51 52 53 55 56 57 59 60 61 62 63 64 65 66 67 68 69 70 72 73 75 76 77 78 79 80 81 82 83 85 87 88 89 91 92 93 95 96 97 98 99 100 101 103 104 107 111 121 122 126 127 
50 51 52 53 55 57 59 62 63 64 65 66 67 70 71 76 77 78 80 82 83 84 85 86 87 88 89 90 91 92 94 97 98 99 100 101 102 104 105 106 107 108 111 112 113 117 119 125 
16 46 48 49 50 51 52 53 55 56 57 59 60 61 62 63 64 65 66 67 70 71 76 77 78 80 82 83 84 85 87 88 89 90 91 92 94 96 97 98 99 100 101 103 104 105 107 108 111 112 113 117 119 124 
29 32 48 49 50 51 52 53 56 61 63 65 70 76 78 80 85 88 96 97 98 101 103 104 121 122 123 127 
29 32 48 49 50 51 52 53 56 61 65 76 78 80 85 88 96 97 98 101 103 104 121 122 123 126 
16 18 21 71 87 89 91 94 111 112 114 115 116 118 
68 69 72 73 75 79 81 93 95 130 131 132 134 
68 69 72 73 75 79 81 93 95 129 131 132 134 
68 69 72 73 75 79 81 93 95 129 130 132 133 134 
68 69 72 73 75 79 81 93 95 129 130 131 133 134 
72 73 93 95 131 132 134 
72 73 93 95 129 130 131 132 133 


138 
137 
140 141 
139 141 
139 140 
143 144 145 147 153 154 
142 144 145 147 153 154 
142 143 145 147 153 154 
142 143 144 147 153 154 

142 143 144 145 153 154 
149 150 151 
148 150 151 
148 149 151 
148 149 150 
20 155 156 
142 143 144 145 147 154 
142 143 144 145 147 153 
20 152 156 
20 152 155 
196 197 198 199 201 202 203 204 205 206 207 208 209 210 211 212 213 214 


161 207 208 209 210 211 212 214 219 
160 186 187 207 208 209 210 211 212 214 218 219 
163 164 173 176 
162 164 173 176 
162 163 173 176 

171 
168 169 
167 169 
167 168 
175 
166 

162 163 164 176 

170 
162 163 164 173 
178 
177 
23 24 25 26 28 30 31 221 
181 
180 
183 
182 


161 187 207 208 209 210 211 212 214 215 216 217 218 219 
161 186 207 208 209 210 211 212 214 215 216 217 218 219 

190 191 192 193 
189 191 192 193 194 
189 190 192 193 
189 190 191 193 
189 190 191 192 
190 

157 197 198 199 201 202 203 204 205 206 207 208 209 210 211 212 213 214 
157 196 198 199 202 203 204 205 206 207 208 209 210 211 212 214 217 218 
157 196 197 199 201 202 203 204 205 206 207 208 209 210 211 212 213 214 
157 196 197 198 201 202 203 204 205 206 207 208 209 210 211 212 213 214 

157 196 198 199 203 204 205 206 213 
157 196 197 198 199 203 204 205 206 207 208 209 210 211 212 214 217 218 
157 196 197 198 199 201 202 204 205 206 207 208 209 210 211 212 213 214 
157 196 197 198 199 201 202 203 205 206 207 208 209 210 211 212 213 214 
157 196 197 198 199 201 202 203 204 206 207 208 209 210 211 212 213 214 
157 196 197 198 199 201 202 203 204 205 207 208 209 210 211 212 213 214 
157 160 161 186 187 196 197 198 199 202 203 204 205 206 208 209 210 211 212 213 214 215 217 218 219 
157 160 161 186 187 196 197 198 199 202 203 204 205 206 207 209 210 211 212 213 214 215 217 218 219 
157 160 161 186 187 196 197 198 199 202 203 204 205 206 207 208 210 211 212 213 214 215 217 218 219 
157 160 161 186 187 196 197 198 199 202 203 204 205 206 207 208 209 211 212 213 214 215 217 218 219 
157 160 161 186 187 196 197 198 199 202 203 204 205 206 207 208 209 210 212 213 214 215 217 218 219 
157 160 161 186 187 196 197 198 199 202 203 204 205 206 207 208 209 210 211 213 214 215 217 218 219 
157 196 198 199 201 203 204 205 206 207 208 209 210 211 212 214 
157 160 161 186 187 196 197 198 199 202 203 204 205 206 207 208 209 210 211 212 213 215 217 218 219 
186 187 207 208 209 210 211 212 214 216 217 218 219 
186 187 215 217 218 
186 187 197 202 207 208 209 210 211 212 214 215 216 218 219 
161 186 187 197 202 207 208 209 210 211 212 214 215 216 217 219 
160 161 186 187 207 208 209 210 211 212 214 215 217 218 

23 24 25 26 28 30 31 179 
226 227 228 
224 225 227 
223 225 227 
223 224 227 
222 227 228 
222 223 224 225 226 228 
222 226 227 

231 232 
230 232 
230 231 
